Route 1: 0 58 5 28 61 55 17 57 0
Route 2: 0 65 25 88 82 32 68 13 0
Route 3: 0 26 8 36 87 93 34 0
Route 4: 0 77 31 14 100 75 33 15 91 72 63 10 0
Route 5: 0 62 30 45 2 24 3 0
Route 6: 0 94 97 98 4 86 6 54 20 64 90 43 50 0
Route 7: 0 74 85 9 27 60 29 59 19 44 53 41 1 0
Route 8: 0 47 12 70 7 16 51 69 76 79 95 49 39 0
Route 9: 0 46 81 18 67 11 66 80 35 42 48 40 0
Route 10: 0 52 84 92 21 23 71 83 0
Route 11: 0 56 99 89 78 96 22 0
Route 12: 0 38 73 37 0
